(set-info :origin "SVCOMP13 benchmarks generated by Arie Gurfinkel")
(set-info :status sat)
(set-logic HORN)
(declare-fun cp-rel-entry () Bool)
(declare-fun cp-rel-bb1.i.i34.i.i () Bool)
(declare-fun cp-rel-bb1.i.i (Real Real Real) Bool)
(assert |cp-rel-entry|)
(assert (forall ((?A Real) (?B Real) (?C Real) (?D Bool) )(let (($x287172 (and |cp-rel-entry| (<= ?C 0.0) (>= ?B 1.0) (<= ?B 1.0) (>= ?A 0.0) (<= ?A 0.0) (= ?D true) (>= ?C 0.0))))
(=> $x287172 (|cp-rel-bb1.i.i| ?A ?B ?C))))
)
(assert (forall ((?A Real) (?B Real) (?C Real) (?D Real) (?E Real) (?F Real) (?G Bool) (?H Bool) (?I Bool) (?J Bool) (?K Bool) (?L Bool) (?M Real) (?N Real) (?O Bool) (?P Bool) (?Q Bool) (?R Bool) (?S Bool) (?T Bool) (?U Real) (?V Real) (?W Bool) (?X Bool) (?Y Bool) (?Z Bool) (?A1 Bool) (?B1 Bool) (?C1 Bool) (?D1 Bool) (?E1 Bool) (?F1 Bool) (?G1 Bool) (?H1 Bool) (?I1 Bool) (?J1 Bool) (?K1 Real) (?L1 Real) (?M1 Real) (?N1 Bool) (?O1 Bool) (?P1 Real) (?Q1 Bool) (?R1 Bool) (?S1 Real) (?T1 Bool) (?U1 Real) (?V1 Real) (?W1 Bool) (?X1 Bool) (?Y1 Real) (?Z1 Bool) (?A2 Bool) (?B2 Bool) )(let (($x570265 (|cp-rel-bb1.i.i| ?D ?E ?F)))
(let (($x636737 (= ?R1 (or ?B2 ?A2))))
(let (($x11462 (or (not ?G) (and ?H ?I (not ?J)))))
(let (($x533432 (or (not ?G) ?I)))
(let (($x89165 (not ?K)))
(let (($x272586 (or $x89165 (and ?G ?L (<= ?M ?N) (>= ?M ?N)) (and ?H ?O ?J (<= ?M ?B) (>= ?M ?B)))))
(let (($x552560 (or $x89165 (and ?L (not ?O)) (and ?O (not ?L)))))
(let (($x861216 (or (not ?P) (and ?K ?Q (not ?R)))))
(let (($x555151 (or (not ?P) ?Q)))
(let (($x422023 (not ?S)))
(let (($x386884 (or $x422023 (and ?P ?T (<= ?U ?V) (>= ?U ?V)) (and ?K ?W ?R (<= ?U ?A) (>= ?U ?A)))))
(let (($x874111 (or $x422023 (and ?T (not ?W)) (and ?W (not ?T)))))
(let (($x582527 (or (not ?X) (and ?S ?Y ?Z))))
(let (($x257347 (or (not ?X) ?Y)))
(let (($x649779 (or (not ?A1) (and ?S ?B1 (not ?Z)))))
(let (($x403656 (or (not ?A1) ?B1)))
(let (($x319210 (or (not ?C1) (and ?X ?D1 ?E1))))
(let (($x259919 (or (not ?C1) ?D1)))
(let (($x171409 (or (not ?F1) (and ?A1 ?G1 ?H1))))
(let (($x553798 (or (not ?F1) ?G1)))
(let (($x316475 (>= ?K1 ?P1)))
(let (($x636692 (<= ?K1 ?P1)))
(let (($x50142 (and ?A1 ?Q1 (not ?H1) $x636692 $x316475 (<= ?L1 0.0) (>= ?L1 0.0))))
(let (($x356934 (>= ?K1 ?M)))
(let (($x700818 (<= ?K1 ?M)))
(let (($x637402 (not ?I1)))
(let (($x858659 (or $x637402 (and ?C1 ?J1 $x700818 $x356934 (<= ?L1 ?M1) (>= ?L1 ?M1)) (and ?X ?N1 (not ?E1) $x700818 $x356934 (<= ?L1 ?C) (>= ?L1 ?C)) (and ?F1 ?O1 $x636692 $x316475 (<= ?L1 ?C) (>= ?L1 ?C)) $x50142)))
(let (($x567711 (or $x637402 (and ?J1 (not ?N1) (not ?O1) (not ?Q1)) (and ?N1 (not ?J1) (not ?O1) (not ?Q1)) (and ?O1 (not ?J1) (not ?N1) (not ?Q1)) (and ?Q1 (not ?J1) (not ?N1) (not ?O1)))))
(let (($x607945 (= ?I1 true)))
(let (($x931472 (= ?R1 true)))
(let (($x353313 (= ?J (= ?S1 0.0))))
(let (($x108702 (= ?U1 (ite ?T1 1.0 0.0))))
(let (($x293443 (= ?R (= ?V1 0.0))))
(let (($x323237 (= ?V (ite ?W1 1.0 0.0))))
(let (($x577097 (= ?E1 (not (<= ?M 1.0)))))
(let (($x887053 (= ?X1 (not (<= ?M 0.0)))))
(let (($x570320 (= ?Y1 (+ (~ 1.0) ?M))))
(let (($x850345 (= ?P1 (ite ?X1 ?Y1 ?M))))
(let (($x480498 (= ?H1 (= ?P1 0.0))))
(let (($x107444 (= ?Z1 (= ?U 0.0))))
(let (($x296544 (= ?A2 (not (= ?K1 0.0)))))
(let (($x63742 (= ?B2 (= ?L1 0.0))))
(let (($x214931 (and (|cp-rel-bb1.i.i| ?A ?B ?C) $x63742 $x296544 (= ?M1 (ite ?Z1 1.0 ?C)) $x107444 $x480498 $x850345 $x570320 $x887053 $x577097 (= ?Z (= ?C 0.0)) $x323237 (= ?W1 (= ?A 0.0)) $x293443 (= ?N (+ ?U1 ?B)) $x108702 (= ?T1 (not (<= 2.0 ?B))) $x353313 (>= ?F ?L1) (<= ?F ?L1) (>= ?E ?K1) (<= ?E ?K1) (>= ?D ?U) (<= ?D ?U) $x931472 $x607945 $x567711 $x858659 $x553798 $x171409 $x259919 $x319210 $x403656 $x649779 $x257347 $x582527 $x874111 $x386884 $x555151 $x861216 $x552560 $x272586 $x533432 $x11462 $x636737)))
(=> $x214931 $x570265)))))))))))))))))))))))))))))))))))))))))))))
)
(assert (forall ((?A Real) (?B Real) (?C Real) (?D Bool) (?E Bool) (?F Bool) (?G Bool) (?H Bool) (?I Bool) (?J Real) (?K Real) (?L Bool) (?M Bool) (?N Bool) (?O Bool) (?P Bool) (?Q Bool) (?R Real) (?S Real) (?T Bool) (?U Bool) (?V Bool) (?W Bool) (?X Bool) (?Y Bool) (?Z Bool) (?A1 Bool) (?B1 Bool) (?C1 Bool) (?D1 Bool) (?E1 Bool) (?F1 Bool) (?G1 Bool) (?H1 Real) (?I1 Real) (?J1 Real) (?K1 Bool) (?L1 Bool) (?M1 Real) (?N1 Bool) (?O1 Bool) (?P1 Real) (?Q1 Bool) (?R1 Real) (?S1 Real) (?T1 Bool) (?U1 Bool) (?V1 Real) (?W1 Bool) (?X1 Bool) (?Y1 Bool) )(let (($x636737 (= ?O1 (or ?Y1 ?X1))))
(let (($x11462 (or (not ?D) (and ?E ?F (not ?G)))))
(let (($x533432 (or (not ?D) ?F)))
(let (($x89165 (not ?H)))
(let (($x289391 (or $x89165 (and ?D ?I (<= ?J ?K) (>= ?J ?K)) (and ?E ?L ?G (<= ?J ?B) (>= ?J ?B)))))
(let (($x552560 (or $x89165 (and ?I (not ?L)) (and ?L (not ?I)))))
(let (($x861216 (or (not ?M) (and ?H ?N (not ?O)))))
(let (($x555151 (or (not ?M) ?N)))
(let (($x422023 (not ?P)))
(let (($x133707 (or $x422023 (and ?M ?Q (<= ?R ?S) (>= ?R ?S)) (and ?H ?T ?O (<= ?R ?A) (>= ?R ?A)))))
(let (($x874111 (or $x422023 (and ?Q (not ?T)) (and ?T (not ?Q)))))
(let (($x582527 (or (not ?U) (and ?P ?V ?W))))
(let (($x257347 (or (not ?U) ?V)))
(let (($x649779 (or (not ?X) (and ?P ?Y (not ?W)))))
(let (($x403656 (or (not ?X) ?Y)))
(let (($x319210 (or (not ?Z) (and ?U ?A1 ?B1))))
(let (($x259919 (or (not ?Z) ?A1)))
(let (($x171409 (or (not ?C1) (and ?X ?D1 ?E1))))
(let (($x553798 (or (not ?C1) ?D1)))
(let (($x316475 (>= ?H1 ?M1)))
(let (($x636692 (<= ?H1 ?M1)))
(let (($x50142 (and ?X ?N1 (not ?E1) $x636692 $x316475 (<= ?I1 0.0) (>= ?I1 0.0))))
(let (($x356934 (>= ?H1 ?J)))
(let (($x700818 (<= ?H1 ?J)))
(let (($x637402 (not ?F1)))
(let (($x572795 (or $x637402 (and ?Z ?G1 $x700818 $x356934 (<= ?I1 ?J1) (>= ?I1 ?J1)) (and ?U ?K1 (not ?B1) $x700818 $x356934 (<= ?I1 ?C) (>= ?I1 ?C)) (and ?C1 ?L1 $x636692 $x316475 (<= ?I1 ?C) (>= ?I1 ?C)) $x50142)))
(let (($x567711 (or $x637402 (and ?G1 (not ?K1) (not ?L1) (not ?N1)) (and ?K1 (not ?G1) (not ?L1) (not ?N1)) (and ?L1 (not ?G1) (not ?K1) (not ?N1)) (and ?N1 (not ?G1) (not ?K1) (not ?L1)))))
(let (($x607945 (= ?F1 true)))
(let (($x353313 (= ?G (= ?P1 0.0))))
(let (($x108702 (= ?R1 (ite ?Q1 1.0 0.0))))
(let (($x293443 (= ?O (= ?S1 0.0))))
(let (($x323237 (= ?S (ite ?T1 1.0 0.0))))
(let (($x577097 (= ?B1 (not (<= ?J 1.0)))))
(let (($x887053 (= ?U1 (not (<= ?J 0.0)))))
(let (($x570320 (= ?V1 (+ (~ 1.0) ?J))))
(let (($x850345 (= ?M1 (ite ?U1 ?V1 ?J))))
(let (($x480498 (= ?E1 (= ?M1 0.0))))
(let (($x107444 (= ?W1 (= ?R 0.0))))
(let (($x296544 (= ?X1 (not (= ?H1 0.0)))))
(let (($x63742 (= ?Y1 (= ?I1 0.0))))
(let (($x570265 (|cp-rel-bb1.i.i| ?A ?B ?C)))
(let (($x192321 (and $x570265 $x63742 $x296544 (= ?J1 (ite ?W1 1.0 ?C)) $x107444 $x480498 $x850345 $x570320 $x887053 $x577097 (= ?W (= ?C 0.0)) $x323237 (= ?T1 (= ?A 0.0)) $x293443 (= ?K (+ ?R1 ?B)) $x108702 (= ?Q1 (not (<= 2.0 ?B))) $x353313 (not (= ?O1 true)) $x607945 $x567711 $x572795 $x553798 $x171409 $x259919 $x319210 $x403656 $x649779 $x257347 $x582527 $x874111 $x133707 $x555151 $x861216 $x552560 $x289391 $x533432 $x11462 $x636737)))
(=> $x192321 |cp-rel-bb1.i.i34.i.i|))))))))))))))))))))))))))))))))))))))))))))
)
(assert (not cp-rel-bb1.i.i34.i.i))
(check-sat)
